============================[ Problem Statistics ]=============================|                                                                             ||  Number of variables:          4242                                         ||  Number of clauses:           10085                                         ||  Parse time:                   0.48 s                                       ||                                                                             |============================[ Search Statistics ]==============================| Conflicts |          ORIGINAL         |          LEARNT          | Progress ||           |    Vars  Clauses Literals |    Limit  Clauses Lit/Cl |          |===============================================================================|       100 |    1591     6290   754791 |     2306      100     53 | 62.501 % ||       250 |    1591     6290   754791 |     2536      250     75 | 62.495 % |===============================================================================restarts              : 3conflicts             : 267            (365 /sec)decisions             : 534            (0.00 % random) (730 /sec)propagations          : 11788          (16104 /sec)conflict literals     : 20504          (94.84 % deleted)CPU time              : 0.732 sSATISFIABLE